\ Model y_PSP
\ LP format - for model browsing. Use MPS format to capture full model detail.
Minimize
  - 0.25 d1 - 0.0666666666666667 d2 - 0.0769230769230769 d3
   - 0.0833333333333333 d4 - 0.0909090909090909 d5 - 0.1 d6
   - 0.1111111111111111 d7 - 0.1111111111111111 d8 - 0.125 d9
   - 0.1428571428571428 d10 - 0.1428571428571428 d11
   - 0.1428571428571428 d12 - 0.1666666666666667 d13
   - 0.1666666666666667 d14 - 0.1666666666666667 d15
   - 0.1666666666666667 d16 + Constant
Subject To
 R0: 41 d1 + 12 d2 + 13 d3 + 15 d4 + 16 d5 + 18 d6 + 19 d7 + 20 d8 + 21 d9
   + 23 d10 + 24 d11 + 25 d12 + 26 d13 + 27 d14 + 28 d15 + 29 d16 <= 180
Bounds
 Constant = 1
Generals
 d1 d2 d3 d4 d5 d6 d7 d8 d9 d10 d11 d12 d13 d14 d15 d16
End
